Route #1: 27 30 51 9 66 1 
Route #2: 72 75 22 74 58 
Route #3: 28 12 40 53 26 
Route #4: 59 99 94 96 
Route #5: 45 82 7 8 46 
Route #6: 63 64 49 48 
Route #7: 62 11 90 20 32 70 
Route #8: 95 98 16 86 17 
Route #9: 5 83 61 85 37 93 
Route #10: 39 23 67 55 25 
Route #11: 2 21 73 41 56 4 
Route #12: 92 42 15 87 57 97 13 
Route #13: 31 88 6 
Route #14: 14 44 38 43 91 100 
Route #15: 52 18 84 60 89 
Route #16: 69 76 79 3 54 24 80 
Route #17: 33 29 78 34 35 77 
Route #18: 65 71 81 50 68 
Route #19: 36 47 19 10 
Objective: 389300.8
